Version identifier: 20.1.0.0 | 2020-11-10 | 9bedb6d68
CPXPARAM_Threads                                 1
CPXPARAM_TimeLimit                               7200
CPXPARAM_MIP_Tolerances_MIPGap                   0
Generic callback                                 0x60
1 of 1 MIP starts provided solutions.
MIP start 'm1' defined initial solution with objective 1395.1966.
Tried aggregator 1 time.
Reduced MIP has 801001 rows, 800801 columns, and 2400800 nonzeros.
Reduced MIP has 800 binaries, 0 generals, 0 SOSs, and 0 indicators.
Presolve time = 0.73 sec. (638.96 ticks)
Probing time = 0.10 sec. (100.03 ticks)
Tried aggregator 1 time.
Reduced MIP has 801001 rows, 800801 columns, and 2400800 nonzeros.
Reduced MIP has 800 binaries, 0 generals, 0 SOSs, and 0 indicators.
Presolve time = 0.71 sec. (625.98 ticks)
Probing time = 0.10 sec. (100.03 ticks)
MIP emphasis: balance optimality and feasibility.
MIP search method: dynamic search.
Parallel mode: none, using 1 thread.
Root relaxation solution time = 0.26 sec. (308.38 ticks)

        Nodes                                         Cuts/
   Node  Left     Objective  IInf  Best Integer    Best Bound    ItCnt     Gap

*     0+    0                         1395.1966     5432.0000           289.34%
      0     0     1424.5465     4     1395.1966     5432.0000        0  289.34%
      0     2     1424.5465     4     1395.1966     1424.5464        0    2.10%
Elapsed time = 6166.82 sec. (4893687.35 ticks, tree = 0.01 MB, solutions = 1)
      1     1        cutoff           1395.1966     1424.5464    26288    2.10%

User cuts applied:  3

Root node processing (before b&c):
  Real time             = 6166.64 sec. (4893509.00 ticks)
Sequential b&c:
  Real time             = 1033.50 sec. (587636.42 ticks)
                          ------------
Total (root+branch&cut) = 7200.13 sec. (5481145.42 ticks)
@Parameters: 
is_S_cut                                true
is_add_all_yinF                         true
is_start_value                          true
is_usercut                              true
is_visualization                        false
uc_only_rootnode                        false

data                                    Qi
fn                                      data/Qi/instance_1000_800.csv
mode                                    ZLP
solver                                  cplex

p                                       2
r                                       10

EPS                                     1.0e-06
EPS_vio                                 1.0e-04
beta                                    0.10
gap                                     0.00
nodelimit                               Inf
timelimit                               7200.00


@PrintInfos
ItCnt: 29619
Current gap: 2.10 %
Termination Status: TIME_LIMIT
Primal Status: FEASIBLE_POINT
Solve Time: 7200.13 sec
Objective Value: 1395.196577
Number of Nodes:      2

CutInfo: [phase] num / time (sec) 
ZLP             [phase1]     0 / 0.00 [rLC]     4 / 22.28 [rUC]     2 / 7.56 [sLC]     0 / 0.00 [sUC]     1 / 4.68 
OldSubmodular   [phase1]     0 / 0.00 [rLC]     0 / 0.00 [rUC]     0 / 0.00 [sLC]     0 / 0.00 [sUC]     0 / 0.00 
NewSubmodular   [phase1]     0 / 0.00 [rLC]     0 / 0.00 [rUC]     0 / 0.00 [sLC]     0 / 0.00 [sUC]     0 / 0.00 
PMP             [phase1]     0 / 0.00 [rLC]     5 / 16.62 [rUC]     2 / 5.27 [sLC]     0 / 0.00 [sUC]     1 / 3.51 
Separation Round: [phase1] 0  [rLC] 5  [rUC] 2  [sLC] 0  [sUC] 1
Root Best Bound 1424.546436
Root Best Integer: 1395.196577
Best Bound: 1424.546436
Best Integer: 1395.196577

